language Essence 1.3

letting class be function(1 --> 5, 2 --> 1, 3 --> 4, 4 --> 2, 5 --> 1, 6 --> 3)
letting deck_length be 78
letting deck_width be 79
letting length be function(1 --> 44, 2 --> 13, 3 --> 15, 4 --> 34, 5 --> 48, 6 --> 76)
letting n_classes be 5
letting n_containers be 6
letting separation be function({1, 4} --> 65, {2, 5} --> 54, {3, 4} --> 66)
letting width be function(1 --> 7, 2 --> 3, 3 --> 15, 4 --> 30, 5 --> 43, 6 --> 1)
